CN=1500;
CT=1740;
CH=1200;
m=10;
n=7;
CPN=9;
CPT=9;
CPH=9;
RM=0.7;
P=[100,250,60,80,200,198,134,43,120,130];
d=[|
422,274,405,438,371,344,310|
440,203,204,409,484,463,157|
141,478,282,340,127,150,385|
195,198,399,334,144,497,447|
123,435,490,188,287,495,348|
318,289,226,384,457,135,287|
450,450,202,471,265,417,427|
181,205,108,344,189,440,431|
176,430,265,214,216,362,285|
343,107,493,238,297,216,456|];